5 5
4 25 2 59 1 13 3 86 0 81
4 86 3 98 0 62 2 8 1 45
0 18 1 88 3 60 2 60 4 2
3 66 4 91 0 14 2 48 1 56
4 12 0 96 3 92 2 55 1 28
-1
0 4 5
0 1 4 5
0 1 3 5
0 1 2 4 5
0 3 5
-2
266 418
115 309 469
27 235 281
80 237 318 375
257 415

484 5
10 21 17 7 4
11 2 19 9 24
1 18 8 23 13
15 6 3 22 12
5 0 20 16 14
